NAME : n40w140.004.342.tour
COMMENT : Length = 342
COMMENT : Found by LKH [Keld Helsgaun] Tue May  2 05:19:04 2017
TYPE : TOUR
DIMENSION : 41
TOUR_SECTION
1
13
4
15
18
33
10
39
34
25
16
22
14
8
2
9
26
24
27
29
37
7
35
40
30
23
21
20
36
12
11
17
6
38
28
3
31
19
32
5
41
-1
EOF
